Geographic Exponential Decay
40 257 212 209 164 125 311 208 307 0 117 198 291 58 88 26 224 30 194 314 228 123 116 206 297 292 231 185 189 220 258 53 42 82 48 267 108 85 251 128 244
p edge 320 1303
e 0 45 17.0
e 0 289 62.0
e 0 46 45.0
e 0 315 36.0
e 0 99 24.0
e 0 307 62.0
e 0 107 65.0
e 0 104 95.0
e 0 10 70.0
e 0 35 34.0
e 0 135 18.0
e 0 44 100.0
e 0 2 69.0
e 0 173 18.0
e 0 267 53.0
e 0 16 59.0
e 0 176 62.0
e 0 125 63.0
e 0 218 17.0
e 0 142 58.0
e 0 160 15.0
e 0 298 94.0
e 0 143 62.0
e 0 151 25.0
e 0 236 82.0
e 0 65 18.0
e 0 179 66.0
e 1 122 11.0
e 1 152 4.0
e 1 231 84.0
e 1 8 19.0
e 3 212 13.0
e 4 74 1.0
e 5 106 3.0
e 6 249 5.0
e 6 158 10.0
e 6 82 73.0
e 6 63 1.0
e 7 247 2.0
e 8 46 2.0
e 8 111 19.0
e 8 87 11.0
e 8 264 8.0
e 8 26 32.0
e 8 267 90.0
e 9 153 1.0
e 11 247 1.0
e 12 242 1.0
e 12 261 4.0
e 13 104 4.0
e 13 3 4.0
e 14 111 1.0
e 14 4 5.0
e 15 205 5.0
e 15 313 5.0
e 16 98 5.0
e 17 112 1.0
e 18 115 12.0
e 18 122 1.0
e 18 293 1.0
e 18 258 9.0
e 19 162 9.0
e 20 84 28.0
e 20 32 25.0
e 20 95 49.0
e 20 246 34.0
e 20 194 49.0
e 20 236 42.0
e 20 75 28.0
e 20 245 46.0
e 20 275 4.0
e 20 71 6.0
e 20 203 41.0
e 20 198 90.0
e 20 168 41.0
e 20 14 7.0
e 21 301 2.0
e 22 61 2.0
e 23 215 3.0
e 23 313 1.0
e 24 286 1.0
e 25 143 9.0
e 25 170 5.0
e 25 116 52.0
e 25 15 11.0
e 26 276 13.0
e 26 289 68.0
e 26 236 21.0
e 26 60 47.0
e 26 230 18.0
e 26 50 15.0
e 26 298 69.0
e 26 73 32.0
e 26 260 20.0
e 26 227 50.0
e 26 223 9.0
e 26 301 67.0
e 26 104 57.0
e 26 247 97.0
e 26 113 89.0
e 26 163 36.0
e 26 82 65.0
e 26 47 88.0
e 26 54 72.0
e 26 27 80.0
e 26 205 39.0
e 26 248 13.0
e 26 267 67.0
e 26 93 46.0
e 26 96 29.0
e 26 284 20.0
e 28 162 3.0
e 29 294 9.0
e 30 69 30.0
e 30 170 38.0
e 30 279 32.0
e 30 21 63.0
e 30 245 26.0
e 30 225 64.0
e 30 231 34.0
e 30 270 50.0
e 30 232 50.0
e 30 93 46.0
e 30 227 95.0
e 30 119 47.0
e 30 67 90.0
e 30 257 57.0
e 30 22 96.0
e 30 101 15.0
e 30 252 48.0
e 30 178 22.0
e 30 268 2.0
e 30 274 56.0
e 30 267 68.0
e 30 113 11.0
e 30 189 10.0
e 30 284 18.0
e 30 273 39.0
e 30 199 81.0
e 30 102 51.0
e 31 232 4.0
e 33 184 2.0
e 33 74 5.0
e 34 218 6.0
e 34 205 5.0
e 36 24 1.0
e 37 79 5.0
e 38 197 1.0
e 39 211 1.0
e 39 111 3.0
e 40 5 3.0
e 40 107 8.0
e 40 249 5.0
e 40 32 8.0
e 41 243 3.0
e 41 316 3.0
e 42 157 21.0
e 42 76 52.0
e 42 209 8.0
e 42 137 56.0
e 42 106 78.0
e 42 255 48.0
e 42 134 67.0
e 42 53 33.0
e 42 192 3.0
e 42 282 37.0
e 42 220 97.0
e 42 198 42.0
e 42 5 61.0
e 42 184 22.0
e 42 149 65.0
e 42 148 12.0
e 42 140 6.0
e 42 205 27.0
e 42 299 52.0
e 42 101 47.0
e 42 160 33.0
e 42 265 100.0
e 42 206 39.0
e 42 144 3.0
e 42 66 11.0
e 42 12 43.0
e 42 72 60.0
e 43 44 1.0
e 46 174 7.0
e 46 312 6.0
e 48 167 69.0
e 48 271 19.0
e 48 188 18.0
e 48 2 36.0
e 48 88 27.0
e 48 32 71.0
e 48 216 45.0
e 48 99 39.0
e 48 282 29.0
e 48 194 95.0
e 48 295 45.0
e 48 272 12.0
e 48 181 42.0
e 48 246 49.0
e 48 135 20.0
e 48 18 64.0
e 48 245 23.0
e 48 101 74.0
e 48 274 67.0
e 48 3 93.0
e 48 291 88.0
e 48 106 93.0
e 48 217 4.0
e 48 175 89.0
e 48 39 30.0
e 48 184 7.0
e 48 207 58.0
e 49 186 1.0
e 49 44 1.0
e 51 170 3.0
e 52 163 1.0
e 53 314 36.0
e 53 120 21.0
e 53 216 98.0
e 53 71 49.0
e 53 91 44.0
e 53 98 52.0
e 53 70 14.0
e 53 109 55.0
e 53 0 81.0
e 53 294 84.0
e 53 88 69.0
e 53 1 96.0
e 53 234 91.0
e 53 113 29.0
e 53 229 70.0
e 53 105 54.0
e 53 24 59.0
e 53 46 29.0
e 53 310 48.0
e 53 47 58.0
e 53 287 30.0
e 53 226 53.0
e 53 284 44.0
e 53 302 42.0
e 53 121 75.0
e 53 129 71.0
e 55 11 1.0
e 56 24 2.0
e 57 212 94.0
e 57 283 2.0
e 58 89 75.0
e 58 267 77.0
e 58 101 23.0
e 58 122 10.0
e 58 31 62.0
e 58 147 50.0
e 58 11 11.0
e 58 226 100.0
e 58 186 29.0
e 58 96 29.0
e 58 105 81.0
e 58 35 67.0
e 58 91 77.0
e 58 37 19.0
e 58 276 15.0
e 58 269 89.0
e 58 150 47.0
e 58 236 37.0
e 58 180 33.0
e 58 206 40.0
e 58 18 24.0
e 58 32 96.0
e 58 237 50.0
e 58 145 35.0
e 58 270 28.0
e 58 175 87.0
e 58 274 17.0
e 59 128 7.0
e 59 243 11.0
e 59 156 10.0
e 59 152 12.0
e 62 52 1.0
e 62 177 3.0
e 63 89 3.0
e 64 160 1.0
e 64 251 75.0
e 64 216 11.0
e 64 176 6.0
e 68 252 1.0
e 72 222 1.0
e 73 227 3.0
e 73 11 9.0
e 73 51 8.0
e 76 1 1.0
e 77 197 10.0
e 77 59 7.0
e 77 281 41.0
e 77 239 8.0
e 78 120 2.0
e 79 86 4.0
e 80 110 29.0
e 81 230 6.0
e 81 302 8.0
e 81 12 1.0
e 81 46 3.0
e 82 56 34.0
e 82 248 3.0
e 82 177 14.0
e 82 253 51.0
e 82 178 29.0
e 82 193 59.0
e 82 94 44.0
e 82 32 16.0
e 82 10 1.0
e 82 76 19.0
e 82 168 56.0
e 82 157 4.0
e 82 58 99.0
e 82 80 20.0
e 82 33 3.0
e 82 52 7.0
e 82 297 99.0
e 82 12 46.0
e 82 47 51.0
e 82 247 27.0
e 82 180 38.0
e 82 287 86.0
e 82 7 61.0
e 82 131 73.0
e 82 96 43.0
e 83 77 1.0
e 83 67 3.0
e 85 90 17.0
e 85 125 39.0
e 85 159 15.0
e 85 16 90.0
e 85 143 19.0
e 85 115 30.0
e 85 184 45.0
e 85 171 92.0
e 85 2 27.0
e 85 263 90.0
e 85 260 10.0
e 85 12 67.0
e 85 126 52.0
e 85 142 22.0
e 85 44 63.0
e 85 35 49.0
e 85 226 97.0
e 85 144 71.0
e 85 214 98.0
e 85 286 44.0
e 85 271 94.0
e 85 191 54.0
e 85 0 100.0
e 85 83 61.0
e 85 20 32.0
e 85 165 6.0
e 85 82 61.0
e 86 213 20.0
e 88 180 14.0
e 88 42 18.0
e 88 200 5.0
e 88 197 99.0
e 88 272 60.0
e 88 136 44.0
e 88 257 15.0
e 88 181 44.0
e 88 276 52.0
e 88 3 21.0
e 88 9 63.0
e 88 29 85.0
e 88 201 97.0
e 88 61 92.0
e 88 282 66.0
e 88 156 24.0
e 88 30 1.0
e 88 103 29.0
e 88 104 14.0
e 88 154 3.0
e 88 273 20.0
e 88 203 24.0
e 88 67 29.0
e 88 316 37.0
e 88 230 85.0
e 92 49 5.0
e 92 78 6.0
e 92 89 1.0
e 92 139 2.0
e 94 27 1.0
e 95 130 1.0
e 95 12 3.0
e 95 162 1.0
e 97 100 1.0
e 97 169 6.0
e 102 199 18.0
e 102 25 20.0
e 102 123 83.0
e 102 42 76.0
e 102 317 22.0
e 102 159 8.0
e 106 59 1.0
e 108 83 59.0
e 108 7 89.0
e 108 287 55.0
e 108 240 32.0
e 108 265 28.0
e 108 103 20.0
e 108 250 54.0
e 108 313 57.0
e 108 145 16.0
e 108 201 33.0
e 108 85 78.0
e 108 203 48.0
e 108 115 35.0
e 108 118 12.0
e 108 262 77.0
e 108 68 44.0
e 108 129 73.0
e 108 185 7.0
e 108 88 80.0
e 108 94 96.0
e 108 259 16.0
e 108 234 68.0
e 108 51 34.0
e 108 210 59.0
e 108 307 44.0
e 108 125 19.0
e 108 107 65.0
e 109 114 45.0
e 109 193 6.0
e 109 94 17.0
e 109 182 38.0
e 109 123 95.0
e 109 253 44.0
e 109 95 12.0
e 109 180 36.0
e 109 115 1.0
e 109 171 3.0
e 109 161 40.0
e 109 96 10.0
e 109 141 42.0
e 110 288 37.0
e 110 187 43.0
e 110 15 42.0
e 110 247 14.0
e 110 197 33.0
e 110 282 35.0
e 110 24 28.0
e 110 44 43.0
e 110 208 63.0
e 110 304 20.0
e 110 31 2.0
e 110 219 5.0
e 110 134 27.0
e 114 47 1.0
e 116 303 73.0
e 116 273 13.0
e 116 193 16.0
e 116 10 59.0
e 116 21 62.0
e 116 72 55.0
e 116 117 7.0
e 116 209 80.0
e 116 299 34.0
e 116 145 87.0
e 116 286 75.0
e 116 28 48.0
e 116 249 57.0
e 116 169 41.0
e 116 164 3.0
e 116 180 78.0
e 116 255 57.0
e 116 53 15.0
e 116 55 91.0
e 116 35 74.0
e 116 29 45.0
e 116 170 12.0
e 116 124 84.0
e 116 40 95.0
e 116 285 10.0
e 116 253 27.0
e 117 152 69.0
e 117 246 22.0
e 117 182 69.0
e 117 79 41.0
e 117 147 6.0
e 117 115 81.0
e 117 129 70.0
e 117 63 20.0
e 117 296 15.0
e 117 38 87.0
e 117 136 28.0
e 117 298 8.0
e 117 154 70.0
e 117 33 98.0
e 117 121 24.0
e 117 309 76.0
e 117 148 64.0
e 117 289 48.0
e 117 167 96.0
e 117 64 46.0
e 117 111 65.0
e 117 191 10.0
e 117 266 51.0
e 117 88 70.0
e 117 253 23.0
e 117 186 42.0
e 123 70 14.0
e 123 161 23.0
e 123 32 9.0
e 123 173 38.0
e 123 165 92.0
e 123 194 8.0
e 123 98 83.0
e 123 181 10.0
e 123 298 36.0
e 123 244 29.0
e 123 264 12.0
e 123 220 11.0
e 123 146 47.0
e 123 256 7.0
e 123 260 93.0
e 123 263 78.0
e 123 57 79.0
e 123 317 54.0
e 123 205 69.0
e 123 66 5.0
e 123 304 2.0
e 123 259 56.0
e 123 171 43.0
e 123 128 77.0
e 123 310 3.0
e 125 250 81.0
e 125 208 43.0
e 125 153 79.0
e 125 252 34.0
e 125 56 45.0
e 125 161 52.0
e 125 138 43.0
e 125 275 78.0
e 125 63 29.0
e 125 68 97.0
e 125 69 30.0
e 125 289 92.0
e 125 64 61.0
e 125 87 42.0
e 125 178 79.0
e 125 86 51.0
e 125 17 9.0
e 125 276 47.0
e 125 122 31.0
e 125 281 61.0
e 125 29 71.0
e 125 200 83.0
e 125 12 23.0
e 125 47 81.0
e 126 303 6.0
e 127 204 2.0
e 128 219 6.0
e 128 239 7.0
e 128 284 50.0
e 128 25 23.0
e 128 111 57.0
e 128 308 68.0
e 128 13 17.0
e 128 198 17.0
e 128 51 77.0
e 128 10 77.0
e 128 24 80.0
e 128 293 37.0
e 128 258 27.0
e 128 272 6.0
e 128 8 20.0
e 128 124 90.0
e 128 146 74.0
e 128 225 21.0
e 128 86 64.0
e 128 257 50.0
e 128 60 71.0
e 128 50 26.0
e 128 191 99.0
e 128 9 37.0
e 128 199 21.0
e 129 46 21.0
e 129 251 71.0
e 129 13 7.0
e 129 14 7.0
e 130 200 3.0
e 131 143 5.0
e 132 317 7.0
e 132 268 11.0
e 132 212 76.0
e 132 24 1.0
e 133 311 27.0
e 133 192 4.0
e 133 151 1.0
e 133 306 1.0
e 137 44 7.0
e 137 256 12.0
e 137 219 7.0
e 145 271 20.0
e 145 48 100.0
e 145 109 41.0
e 145 152 22.0
e 146 155 8.0
e 146 171 8.0
e 150 252 2.0
e 150 25 2.0
e 150 228 24.0
e 154 269 8.0
e 154 97 9.0
e 158 278 11.0
e 158 29 11.0
e 158 3 3.0
e 162 304 20.0
e 164 19 14.0
e 164 256 55.0
e 164 37 57.0
e 164 176 49.0
e 164 1 63.0
e 164 182 16.0
e 164 88 27.0
e 164 66 35.0
e 164 195 10.0
e 164 78 92.0
e 164 108 79.0
e 164 187 42.0
e 164 51 51.0
e 164 129 54.0
e 164 156 7.0
e 164 228 50.0
e 164 268 92.0
e 164 262 39.0
e 164 283 57.0
e 164 186 14.0
e 164 171 49.0
e 164 282 84.0
e 164 131 6.0
e 164 244 8.0
e 164 0 3.0
e 164 125 100.0
e 165 18 10.0
e 165 7 3.0
e 166 190 1.0
e 167 16 11.0
e 167 15 1.0
e 168 247 10.0
e 168 268 7.0
e 169 316 3.0
e 169 15 7.0
e 172 305 9.0
e 174 309 1.0
e 183 142 5.0
e 183 311 97.0
e 185 204 97.0
e 185 34 26.0
e 185 284 23.0
e 185 13 84.0
e 185 119 57.0
e 185 66 48.0
e 185 144 74.0
e 185 294 7.0
e 185 28 66.0
e 185 8 27.0
e 185 286 50.0
e 185 258 31.0
e 185 166 7.0
e 185 243 6.0
e 185 278 97.0
e 185 107 46.0
e 185 146 64.0
e 185 216 91.0
e 185 16 7.0
e 185 123 3.0
e 185 76 90.0
e 185 73 84.0
e 185 95 55.0
e 185 210 91.0
e 185 64 72.0
e 185 94 50.0
e 189 155 56.0
e 189 148 70.0
e 189 188 17.0
e 189 108 35.0
e 189 267 94.0
e 189 233 64.0
e 189 109 46.0
e 189 87 68.0
e 189 277 45.0
e 189 55 3.0
e 189 314 85.0
e 189 218 95.0
e 189 178 94.0
e 189 57 81.0
e 189 60 24.0
e 189 142 24.0
e 189 286 6.0
e 189 33 9.0
e 189 239 70.0
e 189 288 79.0
e 189 76 19.0
e 189 289 75.0
e 189 151 6.0
e 189 251 94.0
e 189 94 78.0
e 189 110 39.0
e 194 149 61.0
e 194 53 61.0
e 194 288 56.0
e 194 195 39.0
e 194 100 1.0
e 194 233 53.0
e 194 164 13.0
e 194 154 5.0
e 194 71 10.0
e 194 235 30.0
e 194 190 24.0
e 194 25 79.0
e 194 311 12.0
e 194 55 56.0
e 194 313 57.0
e 194 255 73.0
e 194 108 54.0
e 194 245 77.0
e 194 203 5.0
e 194 277 12.0
e 194 26 78.0
e 194 271 90.0
e 194 102 15.0
e 194 202 58.0
e 196 121 2.0
e 196 27 4.0
e 198 53 42.0
e 198 139 61.0
e 198 201 89.0
e 198 288 72.0
e 198 1 98.0
e 198 171 66.0
e 198 102 35.0
e 198 2 3.0
e 198 301 3.0
e 198 315 81.0
e 198 163 15.0
e 198 13 33.0
e 198 267 53.0
e 198 303 38.0
e 198 177 79.0
e 198 189 49.0
e 198 158 96.0
e 198 188 22.0
e 198 238 44.0
e 198 316 48.0
e 198 18 10.0
e 198 183 41.0
e 198 107 93.0
e 198 269 36.0
e 202 229 2.0
e 203 46 14.0
e 203 228 90.0
e 203 254 2.0
e 206 86 37.0
e 206 174 22.0
e 206 186 19.0
e 206 295 46.0
e 206 234 84.0
e 206 221 88.0
e 206 172 59.0
e 206 202 2.0
e 206 146 95.0
e 206 101 51.0
e 206 228 75.0
e 206 298 51.0
e 206 130 98.0
e 206 33 98.0
e 206 155 78.0
e 206 262 26.0
e 206 104 83.0
e 206 129 12.0
e 206 305 5.0
e 206 316 14.0
e 206 67 92.0
e 206 260 35.0
e 206 166 47.0
e 206 247 21.0
e 206 297 44.0
e 208 111 61.0
e 208 197 79.0
e 208 161 54.0
e 208 159 62.0
e 208 65 15.0
e 208 311 66.0
e 208 69 78.0
e 208 248 43.0
e 208 185 18.0
e 208 202 11.0
e 208 282 99.0
e 208 169 37.0
e 208 237 54.0
e 208 29 79.0
e 208 228 78.0
e 208 313 57.0
e 208 1 32.0
e 208 94 35.0
e 208 108 16.0
e 208 92 5.0
e 208 279 13.0
e 208 226 39.0
e 208 317 75.0
e 208 153 20.0
e 208 192 13.0
e 209 274 86.0
e 209 260 70.0
e 209 228 88.0
e 209 107 81.0
e 209 81 65.0
e 209 30 82.0
e 209 258 47.0
e 209 210 14.0
e 209 58 51.0
e 209 219 95.0
e 209 35 100.0
e 209 259 68.0
e 209 225 17.0
e 209 235 16.0
e 209 108 79.0
e 209 130 72.0
e 209 157 53.0
e 209 13 80.0
e 209 82 91.0
e 209 33 99.0
e 209 83 93.0
e 209 133 90.0
e 209 273 83.0
e 209 278 2.0
e 209 100 22.0
e 212 137 71.0
e 212 28 90.0
e 212 32 27.0
e 212 70 65.0
e 212 138 3.0
e 212 144 95.0
e 212 25 57.0
e 212 21 15.0
e 212 145 17.0
e 212 257 37.0
e 212 92 79.0
e 212 162 74.0
e 212 296 63.0
e 212 192 100.0
e 212 53 62.0
e 212 79 21.0
e 212 254 76.0
e 212 51 52.0
e 212 287 36.0
e 212 2 7.0
e 212 87 80.0
e 212 157 39.0
e 212 11 77.0
e 212 73 96.0
e 213 248 10.0
e 213 9 14.0
e 213 202 1.0
e 213 147 12.0
e 213 293 22.0
e 213 262 25.0
e 215 128 36.0
e 220 121 90.0
e 220 146 28.0
e 220 71 58.0
e 220 129 94.0
e 220 158 22.0
e 220 153 61.0
e 220 203 65.0
e 220 88 47.0
e 220 225 59.0
e 220 29 78.0
e 220 118 48.0
e 220 300 84.0
e 220 72 49.0
e 220 232 78.0
e 220 4 59.0
e 220 216 32.0
e 220 124 52.0
e 220 180 94.0
e 220 200 7.0
e 220 79 39.0
e 220 176 80.0
e 220 122 80.0
e 220 93 18.0
e 220 306 94.0
e 220 20 60.0
e 223 179 5.0
e 223 213 8.0
e 223 238 18.0
e 223 274 5.0
e 223 219 19.0
e 223 273 21.0
e 224 303 13.0
e 224 95 45.0
e 224 72 38.0
e 224 260 94.0
e 224 65 27.0
e 224 16 88.0
e 224 155 84.0
e 224 251 79.0
e 224 119 4.0
e 224 42 21.0
e 224 294 44.0
e 224 267 74.0
e 224 252 65.0
e 224 184 46.0
e 224 37 97.0
e 224 152 10.0
e 224 135 63.0
e 224 173 22.0
e 224 82 39.0
e 224 114 52.0
e 224 186 12.0
e 224 165 95.0
e 224 288 96.0
e 224 142 42.0
e 224 312 23.0
e 224 256 89.0
e 224 198 38.0
e 228 250 49.0
e 228 219 84.0
e 228 194 33.0
e 228 254 68.0
e 228 49 63.0
e 228 220 69.0
e 228 265 85.0
e 228 177 58.0
e 228 135 19.0
e 228 92 5.0
e 228 36 70.0
e 228 147 37.0
e 228 224 77.0
e 228 211 35.0
e 228 249 25.0
e 228 289 24.0
e 228 195 79.0
e 228 9 72.0
e 228 264 47.0
e 228 248 26.0
e 228 84 48.0
e 231 294 83.0
e 231 198 62.0
e 231 311 27.0
e 231 139 52.0
e 231 228 14.0
e 231 51 85.0
e 231 121 25.0
e 231 240 88.0
e 231 33 41.0
e 231 101 85.0
e 231 117 100.0
e 231 19 12.0
e 231 257 70.0
e 231 220 86.0
e 231 86 37.0
e 231 241 64.0
e 231 89 5.0
e 231 275 88.0
e 231 234 51.0
e 231 142 58.0
e 231 25 71.0
e 231 299 88.0
e 231 161 2.0
e 231 138 10.0
e 231 221 77.0
e 232 299 6.0
e 236 274 48.0
e 236 27 27.0
e 236 175 44.0
e 236 163 12.0
e 236 67 36.0
e 236 262 15.0
e 236 52 44.0
e 236 220 94.0
e 236 286 17.0
e 236 46 13.0
e 241 248 12.0
e 241 114 7.0
e 241 110 10.0
e 241 47 22.0
e 241 148 21.0
e 241 229 21.0
e 244 246 75.0
e 244 234 92.0
e 244 291 62.0
e 244 106 79.0
e 244 5 88.0
e 244 222 77.0
e 244 57 25.0
e 244 40 35.0
e 244 171 34.0
e 244 260 2.0
e 244 67 13.0
e 244 201 29.0
e 244 227 47.0
e 244 235 88.0
e 244 63 60.0
e 244 69 13.0
e 244 223 98.0
e 244 313 59.0
e 244 91 85.0
e 244 308 31.0
e 244 248 85.0
e 244 163 49.0
e 244 74 90.0
e 244 19 98.0
e 244 214 38.0
e 245 144 8.0
e 245 56 18.0
e 245 152 5.0
e 250 154 15.0
e 250 114 9.0
e 250 223 2.0
e 250 175 5.0
e 251 34 5.0
e 251 89 25.0
e 251 298 57.0
e 251 8 97.0
e 251 149 48.0
e 251 52 40.0
e 251 317 10.0
e 251 10 44.0
e 251 196 40.0
e 251 17 100.0
e 251 132 20.0
e 251 87 2.0
e 251 241 67.0
e 251 109 19.0
e 251 280 56.0
e 251 166 11.0
e 251 108 85.0
e 251 71 61.0
e 251 41 79.0
e 251 295 42.0
e 251 86 17.0
e 251 294 93.0
e 251 137 65.0
e 257 198 48.0
e 257 143 24.0
e 257 261 46.0
e 257 99 20.0
e 257 163 6.0
e 257 312 39.0
e 257 199 34.0
e 257 192 91.0
e 257 17 78.0
e 257 304 78.0
e 257 84 68.0
e 257 313 51.0
e 257 277 22.0
e 257 40 25.0
e 257 149 56.0
e 257 153 93.0
e 257 229 34.0
e 257 127 47.0
e 257 287 51.0
e 257 241 64.0
e 257 146 99.0
e 257 215 73.0
e 258 67 12.0
e 258 296 83.0
e 258 248 62.0
e 258 137 21.0
e 258 261 4.0
e 258 152 1.0
e 258 225 99.0
e 258 118 28.0
e 258 110 13.0
e 258 122 85.0
e 258 23 78.0
e 258 309 72.0
e 258 34 86.0
e 258 111 10.0
e 258 179 14.0
e 258 212 88.0
e 258 276 76.0
e 258 87 63.0
e 258 241 37.0
e 258 112 7.0
e 258 233 93.0
e 258 129 55.0
e 258 125 60.0
e 259 55 40.0
e 259 118 35.0
e 259 69 11.0
e 259 167 7.0
e 259 28 14.0
e 259 228 52.0
e 259 156 23.0
e 259 76 11.0
e 259 6 40.0
e 259 57 8.0
e 259 9 11.0
e 264 153 5.0
e 266 147 2.0
e 267 205 83.0
e 267 122 94.0
e 267 163 67.0
e 267 222 94.0
e 267 27 32.0
e 267 312 35.0
e 267 34 22.0
e 267 116 22.0
e 267 162 6.0
e 267 15 18.0
e 267 191 91.0
e 267 37 56.0
e 267 223 25.0
e 267 277 66.0
e 267 260 70.0
e 267 20 66.0
e 267 251 12.0
e 267 194 91.0
e 267 139 10.0
e 278 198 68.0
e 279 82 44.0
e 279 317 18.0
e 279 8 16.0
e 279 45 19.0
e 279 227 19.0
e 281 190 20.0
e 281 34 41.0
e 281 52 40.0
e 281 316 2.0
e 281 71 13.0
e 281 97 41.0
e 281 96 34.0
e 281 170 24.0
e 281 216 26.0
e 281 106 8.0
e 281 13 45.0
e 281 279 37.0
e 285 26 80.0
e 290 243 3.0
e 291 109 21.0
e 291 206 75.0
e 291 120 87.0
e 291 179 10.0
e 291 46 88.0
e 291 176 86.0
e 291 282 41.0
e 291 211 99.0
e 291 124 36.0
e 291 228 65.0
e 291 158 90.0
e 291 167 40.0
e 291 180 94.0
e 291 190 50.0
e 291 160 31.0
e 291 56 4.0
e 291 267 3.0
e 291 94 51.0
e 291 93 98.0
e 291 216 100.0
e 291 95 28.0
e 291 237 33.0
e 291 47 98.0
e 291 186 48.0
e 291 249 64.0
e 292 293 95.0
e 292 208 14.0
e 292 287 87.0
e 292 65 92.0
e 292 95 16.0
e 292 286 65.0
e 292 35 26.0
e 292 218 25.0
e 292 82 61.0
e 292 259 73.0
e 292 14 5.0
e 292 303 30.0
e 292 63 99.0
e 292 305 6.0
e 292 27 62.0
e 292 158 22.0
e 292 77 63.0
e 292 98 62.0
e 292 86 50.0
e 292 83 92.0
e 292 102 7.0
e 292 119 41.0
e 292 109 27.0
e 292 106 97.0
e 292 205 98.0
e 292 71 5.0
e 292 274 23.0
e 295 318 1.0
e 297 193 62.0
e 297 263 88.0
e 297 37 43.0
e 297 249 57.0
e 297 164 57.0
e 297 141 6.0
e 297 315 91.0
e 297 223 67.0
e 297 256 59.0
e 297 287 88.0
e 297 34 81.0
e 297 185 33.0
e 297 30 40.0
e 297 234 77.0
e 297 316 58.0
e 297 1 14.0
e 297 275 97.0
e 297 91 60.0
e 297 304 39.0
e 297 161 44.0
e 297 18 60.0
e 297 50 29.0
e 297 291 16.0
e 297 117 98.0
e 297 43 99.0
e 300 81 11.0
e 304 122 14.0
e 304 259 20.0
e 305 5 18.0
e 305 82 31.0
e 305 185 56.0
e 305 125 10.0
e 307 123 44.0
e 307 164 61.0
e 307 290 27.0
e 307 298 26.0
e 307 251 51.0
e 307 289 11.0
e 307 232 81.0
e 307 18 89.0
e 307 49 21.0
e 307 35 90.0
e 307 233 38.0
e 307 159 69.0
e 307 30 59.0
e 307 80 69.0
e 307 125 59.0
e 307 272 61.0
e 307 211 40.0
e 307 279 89.0
e 307 227 39.0
e 307 261 51.0
e 307 151 57.0
e 307 87 43.0
e 307 197 15.0
e 307 308 55.0
e 307 10 33.0
e 310 57 9.0
e 310 9 9.0
e 311 263 39.0
e 311 187 38.0
e 311 318 70.0
e 311 26 13.0
e 311 83 39.0
e 311 117 44.0
e 311 237 47.0
e 311 288 58.0
e 311 70 36.0
e 311 184 64.0
e 311 77 75.0
e 311 72 72.0
e 311 92 48.0
e 311 261 59.0
e 311 138 49.0
e 311 7 53.0
e 311 188 66.0
e 311 15 100.0
e 311 120 84.0
e 311 172 31.0
e 311 27 35.0
e 311 308 78.0
e 314 109 29.0
e 314 261 40.0
e 314 284 48.0
e 314 309 98.0
e 314 68 43.0
e 314 281 59.0
e 314 238 37.0
e 314 257 52.0
e 314 110 35.0
e 314 208 64.0
e 314 202 82.0
e 314 28 64.0
e 314 283 65.0
e 314 145 23.0
e 314 137 45.0
e 314 296 50.0
e 314 50 65.0
e 314 294 100.0
e 314 56 75.0
e 314 133 67.0
e 314 139 63.0
e 314 95 5.0
e 314 97 92.0
e 314 0 15.0
e 314 275 100.0
e 315 124 1.0
e 315 314 66.0
e 315 92 1.0
e 315 317 18.0
e 318 210 1.0
e 318 159 8.0
e 319 237 6.0
